p cnf 222 409               
-8 -7 -19 0
19 -21 0
7 8 -20 0
20 -21 0
21 -37 0
-10 -9 -22 0
22 -24 0
9 10 -23 0
23 -24 0
24 -37 0
-12 -11 -25 0
25 -27 0
11 12 -26 0
26 -27 0
27 -37 0
-14 -13 -28 0
28 -30 0
13 14 -29 0
29 -30 0
30 -37 0
-16 -15 -31 0
31 -33 0
15 16 -32 0
32 -33 0
33 -37 0
-18 -17 -34 0
34 -36 0
17 18 -35 0
35 -36 0
36 -37 0
37 -182 0
11 60 0
-15 60 0
-11 15 -60 0
12 61 0
-16 61 0
-12 16 -61 0
13 62 0
-17 62 0
-13 17 -62 0
14 63 0
-18 63 0
-14 18 -63 0
-60 -61 -62 -63 64 0
15 65 0
-11 65 0
16 66 0
-12 66 0
17 67 0
-13 67 0
18 68 0
-14 68 0
-65 -66 -67 -68 69 0
-64 -69 70 0
-70 -71 0
7 49 0
-15 49 0
8 50 0
-16 50 0
9 51 0
-17 51 0
10 52 0
-18 52 0
-49 -50 -51 -52 53 0
15 54 0
-7 54 0
16 55 0
-8 55 0
17 56 0
-9 56 0
18 57 0
-10 57 0
-54 -55 -56 -57 58 0
-53 -58 59 0
-59 -71 0
7 38 0
-11 38 0
-7 11 -38 0
8 39 0
-12 39 0
-8 12 -39 0
9 40 0
-13 40 0
-9 13 -40 0
10 41 0
-14 41 0
-10 14 -41 0
-38 -39 -40 -41 42 0
11 43 0
-7 43 0
12 44 0
-8 44 0
13 45 0
-9 45 0
14 46 0
-10 46 0
-43 -44 -45 -46 47 0
-42 -47 48 0
-48 -71 0
71 -182 0
-7 -72 0
8 -72 0
7 -8 72 0
-1 72 -73 0
1 -72 -73 0
72 -72 -73 0
73 -84 0
-9 -74 0
10 -74 0
9 -10 74 0
-2 74 -75 0
2 -74 -75 0
74 -74 -75 0
75 -84 0
-11 -76 0
12 -76 0
11 -12 76 0
-3 76 -77 0
3 -76 -77 0
76 -76 -77 0
77 -84 0
-13 -78 0
14 -78 0
13 -14 78 0
-4 78 -79 0
4 -78 -79 0
78 -78 -79 0
79 -84 0
-15 -80 0
16 -80 0
15 -16 80 0
-5 80 -81 0
5 -80 -81 0
80 -80 -81 0
81 -84 0
-17 -82 0
18 -82 0
17 -18 82 0
-6 82 -83 0
6 -82 -83 0
82 -82 -83 0
83 -84 0
84 -182 0
-9 -151 0
-7 -151 0
9 7 151 0
151 -153 0
8 -152 0
10 -152 0
-8 -10 152 0
152 -153 0
-151 -152 153 0
-2 -153 162 0
-162 168 0
-13 -154 0
-11 -154 0
13 11 154 0
154 -156 0
12 -155 0
14 -155 0
-12 -14 155 0
155 -156 0
-154 -155 156 0
-4 -156 164 0
-164 168 0
-17 -157 0
-15 -157 0
17 15 157 0
157 -159 0
16 -158 0
18 -158 0
-16 -18 158 0
158 -159 0
-157 -158 159 0
-6 -159 166 0
-166 168 0
-168 -172 0
153 156 159 -160 0
160 -172 0
-1 -153 161 0
-161 167 0
-3 -156 163 0
-163 167 0
-5 -159 165 0
-165 167 0
-167 -171 0
160 -171 0
172 171 180 0
-10 -85 0
-8 -85 0
85 -87 0
7 -86 0
9 -86 0
86 -87 0
-14 -88 0
-12 -88 0
88 -90 0
11 -89 0
13 -89 0
89 -90 0
-18 -91 0
-16 -91 0
91 -93 0
15 -92 0
17 -92 0
92 -93 0
87 90 93 -94 0
94 -103 0
1 -95 0
87 -95 0
3 -97 0
90 -97 0
5 -99 0
93 -99 0
95 97 99 -101 0
101 -103 0
94 -104 0
2 -96 0
87 -96 0
4 -98 0
90 -98 0
6 -100 0
93 -100 0
96 98 100 -102 0
102 -104 0
-9 -107 0
-8 -107 0
9 8 107 0
107 -109 0
7 -108 0
10 -108 0
-7 -10 108 0
108 -109 0
-107 -108 109 0
-13 -110 0
-12 -110 0
13 12 110 0
110 -112 0
11 -111 0
14 -111 0
-11 -14 111 0
111 -112 0
-110 -111 112 0
-17 -113 0
-16 -113 0
17 16 113 0
113 -115 0
15 -114 0
18 -114 0
-15 -18 114 0
114 -115 0
-113 -114 115 0
109 112 115 -116 0
116 -125 0
1 -117 0
109 -117 0
3 -119 0
112 -119 0
5 -121 0
115 -121 0
117 119 121 -123 0
123 -125 0
2 -118 0
109 -118 0
-2 -109 118 0
-118 124 0
4 -120 0
112 -120 0
-4 -112 120 0
-120 124 0
6 -122 0
115 -122 0
-6 -115 122 0
-122 124 0
118 120 122 -124 0
-124 -128 0
116 -128 0
-10 -129 0
-7 -129 0
10 7 129 0
129 -131 0
8 -130 0
9 -130 0
-8 -9 130 0
130 -131 0
-129 -130 131 0
-14 -132 0
-11 -132 0
14 11 132 0
132 -134 0
12 -133 0
13 -133 0
-12 -13 133 0
133 -134 0
-132 -133 134 0
-18 -135 0
-15 -135 0
18 15 135 0
135 -137 0
16 -136 0
17 -136 0
-16 -17 136 0
136 -137 0
-135 -136 137 0
131 134 137 -138 0
138 -148 0
2 -140 0
131 -140 0
4 -142 0
134 -142 0
6 -144 0
137 -144 0
140 142 144 -146 0
146 -148 0
1 -139 0
131 -139 0
-1 -131 139 0
-139 145 0
3 -141 0
134 -141 0
-3 -134 141 0
-141 145 0
5 -143 0
137 -143 0
-5 -137 143 0
-143 145 0
139 141 143 -145 0
-145 -149 0
138 -149 0
103 -173 0
104 -173 0
125 -175 0
116 -126 0
124 -126 0
126 -175 0
138 -147 0
145 -147 0
147 -177 0
148 -177 0
-180 103 104 125 128 148 149 171 172 173 175 177 -181 0
181 -182 0
-1 3 -183 0
183 -201 0
-1 -3 184 0
1 3 184 0
-3 3 184 0
-2 4 -185 0
-184 185 -186 0
186 -201 0
-2 -4 187 0
2 4 187 0
-4 4 187 0
-184 -187 188 0
-188 38 -189 0
189 -201 0
-7 -11 190 0
7 11 190 0
-11 11 190 0
-188 -190 191 0
-191 39 -192 0
192 -201 0
-8 -12 193 0
8 12 193 0
-12 12 193 0
-191 -193 194 0
-194 40 -195 0
195 -201 0
-9 -13 196 0
9 13 196 0
-13 13 196 0
-194 -196 197 0
-197 41 -198 0
198 -201 0
201 -221 0
-3 5 -202 0
202 -220 0
-3 -5 203 0
3 5 203 0
-5 5 203 0
-4 6 -204 0
-203 204 -205 0
205 -220 0
-4 -6 206 0
4 6 206 0
-6 6 206 0
-203 -206 207 0
-207 60 -208 0
208 -220 0
-11 -15 209 0
11 15 209 0
-15 15 209 0
-207 -209 210 0
-210 61 -211 0
211 -220 0
-12 -16 212 0
12 16 212 0
-16 16 212 0
-210 -212 213 0
-213 62 -214 0
214 -220 0
-13 -17 215 0
13 17 215 0
-17 17 215 0
-213 -215 216 0
-216 63 -217 0
217 -220 0
220 -221 0
182 0
221 0
